# 3D Lennard-Jones Melting Simulation

# Initialize system
units		lj
atom_style	atomic

# Create lattice structure and region
lattice		fcc 0.8442
region		box block 0 10 0 10 0 10
create_box	1 box
create_atoms	1 box
mass		1 1.0

# Initialize velocities
velocity	all create 3.0 87287 loop geom

# Define potential
pair_style	lj/cut 2.5
pair_coeff	1 1 1.0 1.0 2.5

# Set neighbor list parameters
neighbor	0.3 bin
neigh_modify	every 20 delay 0 check no

# Apply NVE ensemble for energy and volume conservation
fix		1 all nve

# Output settings
dump		1 all atom 50 dump.melt   # Dump atom positions every 50 steps
thermo		50                      # Print thermodynamic data every 50 steps

# Run simulation
run		250                    # Run for 250 timesteps
